config:eval_tsp="2022-12-07 09:20:34"
config:arch=arch5
config:num_train_worker=6
config:num_sample_worker=2
config:sample_type=khop2
config:root_path=/nvme/samgraph/
config:dataset=papers100M-undir
config:pipeline=False
config:cache_policy=coll_cache_asymm_link
config:cache_percentage=0.1
config:num_epoch=4
config:batch_size=8000
config:num_hidden=256
config:max_sampling_jobs=1
config:max_copying_jobs=1
config:barriered_epoch=1
config:presample_epoch=2
config:omp_thread_num=6
config:unsupervised=True
config:amp=True
config:rolling=0
config:fanout=[25, 10]
config:lr=0.003
config:dropout=0.5
config:single_gpu=False
config:max_num_step=1000
config:validate_configs=False
config:report_acc=0
config:dataset_path=/nvme/samgraph/papers100M-undir
config:torch_thread_num=8
config:train_workers=['cuda:0', 'cuda:1', 'cuda:2', 'cuda:3', 'cuda:4', 'cuda:5']
config:sample_workers=['cuda:6', 'cuda:7']
config:num_fanout=2
config:num_layer=2
config:_run_mode=RunMode.FGNN
config:_log_level=warn
config:_profile_level=3
config:_empty_feat=0
config:_arch=5
config:_sample_type=5
config:_cache_policy=13
test_result:init:input_scale_factor=1.1
Set parameter WLSAccessID
Set parameter WLSSecret
Set parameter LicenseID
Set parameter TimeLimit to value 200
Set parameter MIPGap to value 0.05
Set parameter GomoryPasses to value 0
Set parameter Aggregate to value 0
Set parameter LogFile to value "cppsolver.log"
Set parameter Threads to value 12
Academic license - for non-commercial use only - registered to xiaoniu.sxn@sjtu.edu.cn
Gurobi Optimizer version 9.5.2 build v9.5.2rc0 (linux64)
Thread count: 48 physical cores, 96 logical processors, using up to 12 threads
Academic license - for non-commercial use only - registered to xiaoniu.sxn@sjtu.edu.cn
Optimize a model with 117456 rows, 25757 columns and 290496 nonzeros
Model fingerprint: 0xe5deeb3c
Variable types: 7 continuous, 25750 integer (25750 binary)
Coefficient statistics:
  Matrix range     [5e-05, 1e+04]
  Objective range  [1e+00, 1e+00]
  Bounds range     [1e+00, 1e+00]
  RHS range        [1e+00, 2e+04]
Found heuristic solution: objective 705875.90882
Presolve removed 92705 rows and 0 columns
Presolve time: 0.28s
Presolved: 24751 rows, 25757 columns, 99941 nonzeros
Variable types: 7 continuous, 25750 integer (25750 binary)

Root simplex log...

Iteration    Objective       Primal Inf.    Dual Inf.      Time
   32916    3.8561327e+04   4.837373e+04   0.000000e+00      5s
   43509    1.1618735e+05   0.000000e+00   0.000000e+00      8s

Root relaxation: objective 1.161873e+05, 43509 iterations, 7.18 seconds (7.47 work units)

    Nodes    |    Current Node    |     Objective Bounds      |     Work
 Expl Unexpl |  Obj  Depth IntInf | Incumbent    BestBd   Gap | It/Node Time

     0     0 116187.347    0 10009 705875.909 116187.347  83.5%     -    8s
H    0     0                    344227.03673 116187.347  66.2%     -    8s
H    0     0                    332561.29192 116187.347  65.1%     -   11s
H    0     0                    252646.27532 116192.478  54.0%     -   12s
     0     0 116192.478    0 9976 252646.275 116192.478  54.0%     -   12s
H    0     0                    251054.70028 116192.478  53.7%     -   13s
     0     0 116192.526    0 9991 251054.700 116192.526  53.7%     -   13s
     0     0 116336.087    0 9973 251054.700 116336.087  53.7%     -   16s
H    0     0                    237295.86363 116336.087  51.0%     -   16s
     0     0 116348.744    0 9962 237295.864 116348.744  51.0%     -   17s
     0     0 116407.113    0 9948 237295.864 116407.113  50.9%     -   19s
     0     0 116474.622    0 9966 237295.864 116474.622  50.9%     -   20s
     0     0 116474.622    0 9970 237295.864 116474.622  50.9%     -   20s
     0     0 116502.566    0 9973 237295.864 116502.566  50.9%     -   21s
H    0     0                    229347.83385 116502.566  49.2%     -   22s
     0     0 116502.798    0 9969 229347.834 116502.798  49.2%     -   24s
     0     0 116502.798    0 9969 229347.834 116502.798  49.2%     -   25s
     0     0 116520.946    0 9974 229347.834 116520.946  49.2%     -   25s
H    0     0                    220700.28413 116520.946  47.2%     -   26s
     0     0 116520.946    0 9975 220700.284 116520.946  47.2%     -   26s
     0     0 116520.946    0 9975 220700.284 116520.946  47.2%     -   27s
     0     0 116521.005    0 9978 220700.284 116521.005  47.2%     -   31s
H    0     0                    216975.56479 116521.005  46.3%     -   31s
     0     0 116521.005    0 9978 216975.565 116521.005  46.3%     -   31s
     0     0 142765.880    0 5904 216975.565 142765.880  34.2%     -   32s
H    0     0                    200288.68903 142765.880  28.7%     -   33s
     0     0 147894.242    0 5211 200288.689 147894.242  26.2%     -   33s
     0     0 155097.963    0 5341 200288.689 155097.963  22.6%     -   34s
     0     0 158668.792    0 5823 200288.689 158668.792  20.8%     -   34s
     0     0 159125.107    0 6202 200288.689 159125.107  20.6%     -   35s
     0     0 159893.680    0 6333 200288.689 159893.680  20.2%     -   36s
     0     0 159994.816    0 6808 200288.689 159994.816  20.1%     -   36s
     0     0 160095.952    0 7132 200288.689 160095.952  20.1%     -   37s
     0     0 160794.322    0 7246 200288.689 160794.322  19.7%     -   38s
     0     0 162352.742    0 7225 200288.689 162352.742  18.9%     -   38s
     0     0 163390.380    0 7320 200288.689 163390.380  18.4%     -   38s
     0     0 164060.961    0 7353 200288.689 164060.961  18.1%     -   39s
     0     0 164593.600    0 7391 200288.689 164593.600  17.8%     -   39s
     0     0 165011.607    0 7427 200288.689 165011.607  17.6%     -   39s
     0     0 165378.137    0 7409 200288.689 165378.137  17.4%     -   40s
     0     0 165503.278    0 7424 200288.689 165503.278  17.4%     -   40s
     0     0 165610.311    0 7394 200288.689 165610.311  17.3%     -   40s
     0     0 165635.640    0 7419 200288.689 165635.640  17.3%     -   41s
     0     0 165643.732    0 7406 200288.689 165643.732  17.3%     -   41s
     0     0 165645.377    0 7428 200288.689 165645.377  17.3%     -   42s
     0     0 166050.056    0 6985 200288.689 166050.056  17.1%     -   43s
H    0     0                    199360.27438 166050.056  16.7%     -   43s
     0     0 166245.301    0 6858 199360.274 166245.301  16.6%     -   44s
     0     0 166503.359    0 6966 199360.274 166503.359  16.5%     -   44s
     0     0 166703.547    0 7062 199360.274 166703.547  16.4%     -   45s
     0     0 166780.777    0 7035 199360.274 166780.777  16.3%     -   45s
     0     0 166817.443    0 7146 199360.274 166817.443  16.3%     -   46s
     0     0 166830.672    0 7153 199360.274 166830.672  16.3%     -   46s
     0     0 167342.525    0 6804 199360.274 167342.525  16.1%     -   48s
H    0     0                    194008.42214 167342.525  13.7%     -   49s
     0     0 167661.618    0 7038 194008.422 167661.618  13.6%     -   50s
     0     0 167972.300    0 6995 194008.422 167972.300  13.4%     -   50s
     0     0 168178.099    0 6977 194008.422 168178.099  13.3%     -   50s
     0     0 168299.772    0 6949 194008.422 168299.772  13.3%     -   50s
     0     0 168394.480    0 6954 194008.422 168394.480  13.2%     -   50s
     0     0 168494.625    0 6941 194008.422 168494.625  13.2%     -   51s
     0     0 168543.882    0 6938 194008.422 168543.882  13.1%     -   51s
     0     0 168578.377    0 6904 194008.422 168578.377  13.1%     -   51s
     0     0 168599.385    0 6947 194008.422 168599.385  13.1%     -   51s
     0     0 169330.967    0 6727 194008.422 169330.967  12.7%     -   53s
     0     0 169446.937    0 6696 194008.422 169446.937  12.7%     -   54s
     0     0 169544.749    0 6660 194008.422 169544.749  12.6%     -   54s
     0     0 169623.171    0 6628 194008.422 169623.171  12.6%     -   55s
     0     0 169664.724    0 6608 194008.422 169664.724  12.5%     -   55s
     0     0 169698.385    0 6604 194008.422 169698.385  12.5%     -   56s
     0     0 170193.122    0 6460 194008.422 170193.122  12.3%     -   57s
H    0     0                    193481.09421 170193.122  12.0%     -   58s
     0     0 170242.278    0 6466 193481.094 170242.278  12.0%     -   58s
     0     0 170283.234    0 6447 193481.094 170283.234  12.0%     -   58s
     0     0 170306.940    0 6443 193481.094 170306.940  12.0%     -   58s
     0     0 170440.037    0 6407 193481.094 170440.037  11.9%     -   60s
     0     0 170440.037    0 6354 193481.094 170440.037  11.9%     -   62s
H    0     0                    193096.87359 170440.037  11.7%     -   62s
H    0     0                    193096.87330 170440.055  11.7%     -  121s
H    0     2                    192580.22747 170440.055  11.5%     -  124s
     0     2 170440.055    0 6354 192580.227 170440.055  11.5%     -  124s
     7    16 170515.354    3 6405 192580.227 170453.547  11.5%  2473  125s
H   27    40                    191026.24261 170478.663  10.8%  1965  127s
H   38    40                    190829.43059 170478.672  10.7%  1734  127s
    63    84 170596.295    8 6423 190829.431 170478.672  10.7%  1130  141s
H   76    84                    190564.35832 170478.672  10.5%   940  141s
   489   526 170904.308   39 6284 190564.358 170478.672  10.5%   179  145s
H  646   663                    189505.16605 170478.672  10.0%   153  147s
H  647   663                    189461.10997 170478.672  10.0%   153  147s
H  649   663                    189444.59105 170478.672  10.0%   152  147s
   760   810 171034.070   55 6253 189444.591 170478.672  10.0%   156  150s
H  937   978                    188807.63434 170478.672  9.71%   136  151s
H  967   978                    188807.42694 170478.672  9.71%   133  151s
  1036  1049 171039.461   62 6239 188807.427 170478.672  9.71%   133  198s
H 1048  1073                    188713.96266 170478.672  9.66%   134  200s
H 1061  1073                    188620.13755 170478.672  9.62%   134  200s
H 1063  1073                    188538.21624 170478.672  9.58%   134  200s

Cutting planes:
  MIR: 406
  Zero half: 420
  Mod-K: 4719

Explored 1072 nodes (311761 simplex iterations) in 200.02 seconds (226.29 work units)
Thread count was 12 (of 96 available processors)

Solution count 10: 188538 188620 188714 ... 190829

Time limit reached
Best objective 1.885382162435e+05, best bound 1.704786721514e+05, gap 9.5787%
coll_cache:optimal_local_rate=0.250905,0.245668,0.30099,0.291871,0.283806,0.222171,
coll_cache:optimal_remote_rate=0.546658,0.551895,0.496573,0.505692,0.513757,0.575392,
coll_cache:optimal_cpu_rate=0.202437,0.202437,0.202437,0.202437,0.202437,0.202437,
z=188538
test_result:init:feat_nbytes=56862697472
test_result:init:cache_nbytes=5689356800
test_result:init:feat_nbytes=56862697472
test_result:init:cache_nbytes=5690753536
test_result:init:feat_nbytes=56862697472
test_result:init:cache_nbytes=5689155584
test_result:init:feat_nbytes=56862697472
test_result:init:cache_nbytes=5691905536
test_result:init:feat_nbytes=56862697472
test_result:init:cache_nbytes=5691457536
test_result:init:feat_nbytes=56862697472
test_result:init:cache_nbytes=5689570816
[Train  Worker 4/6] Started with PID 80431(Tesla V100-SXM2-32GB)
[Train  Worker 4] run train for 4 epochs with 1002 steps
[Train  Worker 5/6] Started with PID 80434(Tesla V100-SXM2-32GB)
[Train  Worker 5] run train for 4 epochs with 1002 steps
[Train  Worker 3/6] Started with PID 80428(Tesla V100-SXM2-32GB)
[Train  Worker 3] run train for 4 epochs with 1002 steps
[Train  Worker 2/6] Started with PID 80425(Tesla V100-SXM2-32GB)
[Train  Worker 2] run train for 4 epochs with 1002 steps
[Train  Worker 1/6] Started with PID 80422(Tesla V100-SXM2-32GB)
[Train  Worker 1] run train for 4 epochs with 1002 steps
[CUDA] cuda0: usage: 16.98 GB
[SAM] cuda0 data alloc        : 0.00 Bytes
[SAM] cuda0 workspace         : 4.80 GB
[SAM] cuda0 workspace reserve : 2.37 GB
[SAM] cuda0 total             : 4.80 GB
[Train  Worker 0/6] Started with PID 80419(Tesla V100-SXM2-32GB)
[Train  Worker 0] run train for 4 epochs with 1002 steps
Epoch 00000 | Epoch Time 35.4893 | Total Train Time(Profiler) 21.4876 | Copy Time 13.9846
[CUDA] cuda0: usage: 16.98 GB
[SAM] cuda0 data alloc        : 0.00 Bytes
[SAM] cuda0 workspace         : 4.80 GB
[SAM] cuda0 workspace reserve : 2.36 GB
[SAM] cuda0 total             : 4.80 GB
Epoch 00001 | Epoch Time 34.0685 | Total Train Time(Profiler) 20.1323 | Copy Time 13.9198
[CUDA] cuda0: usage: 16.98 GB
[SAM] cuda0 data alloc        : 0.00 Bytes
[SAM] cuda0 workspace         : 4.80 GB
[SAM] cuda0 workspace reserve : 2.36 GB
[SAM] cuda0 total             : 4.80 GB
Epoch 00002 | Epoch Time 34.0771 | Total Train Time(Profiler) 20.1265 | Copy Time 13.9343
[CUDA] cuda0: usage: 16.98 GB
[SAM] cuda0 data alloc        : 0.00 Bytes
[SAM] cuda0 workspace         : 4.80 GB
[SAM] cuda0 workspace reserve : 2.37 GB
[SAM] cuda0 total             : 4.80 GB
Epoch 00003 | Epoch Time 34.0777 | Total Train Time(Profiler) 20.1331 | Copy Time 13.9285
[Train  Worker 4] Avg Epoch Time 34.0745 | Train Total Time(Profiler) 4.0453 | Copy Time 30.0130
[Train  Worker 3] Avg Epoch Time 34.0745 | Train Total Time(Profiler) 4.0412 | Copy Time 30.0176
[Train  Worker 5] Avg Epoch Time 34.0745 | Train Total Time(Profiler) 20.1349 | Copy Time 13.9237
[Train  Worker 1] Avg Epoch Time 34.0745 | Train Total Time(Profiler) 4.0395 | Copy Time 30.0165
[Train  Worker 0] Avg Epoch Time 34.0744 | Train Total Time(Profiler) 20.1306 | Copy Time 13.9276
[Train  Worker 2] Avg Epoch Time 34.0745 | Train Total Time(Profiler) 4.0401 | Copy Time 30.0173
[Sample Worker 1/2] Started with PID 80416(Tesla V100-SXM2-32GB)
[Sample Worker 1] run sample for 4 epochs with 501 steps
[Sample Worker 1] Avg Sample Total Time 14.2719 | Sampler Total Time(Profiler) 14.2654
    [Step(average) Profiler Level 1 E3 S500]
        L1  sample           0.023573 | send           0.004845
        L1  recv             0.000000 | copy           0.000000 | convert time 0.000000 | train  0.000000
        L1  feature nbytes 0.00 Bytes | label nbytes 0.00 Bytes
        L1  id nbytes      0.00 Bytes | graph nbytes 0.00 Bytes
        L1  miss nbytes    0.00 Bytes | remote nbytes 0.00 Bytes
        L1  num nodes         4278883 | num samples     5311194
    [Step(average) Profiler Level 2 E3 S500]
        L2  shuffle     0.000703 | core sample  0.010194 | id remap        0.012448
        L2  graph copy  0.000000 | id copy      0.000000 | cache feat copy 0.000000
        L2  last layer sample time 0.000731 | size 228617.117099
    [Step(average) Profiler Level 3 E3 S500]
        L3  khop sample coo  0.007995 | khop sort coo      0.000000 | khop count edge     0.000074 | khop compact edge 0.002062
        L3  walk sample coo  0.000000 | walk topk total    0.000000 | walk topk step1     0.000000 | walk topk step2   0.000000
        L3  walk topk step3  0.000000 | walk topk step4    0.000000 | walk topk step5     0.000000
        L3  walk topk step6  0.000000 | walk topk step7    0.000000
        L3  remap unique     0.000215 | remap populate     0.010314 | remap mapnode       0.000000 | remap mapedge     0.002153
        L3  cache get_index  0.000000 | cache copy_index   0.000000 | cache extract_miss  0.000000
        L3  cache copy_miss  0.000000 | cache combine_miss 0.000000 | cache combine cache 0.000000 | cache combine remote 0.000000
        L3  label extract  0.000000
    [Init Profiler Level 1]
        L1  init     9.6868 | sampler init   275.7819 | trainer init 0.0000
    [Init Profiler Level 2]
        L2  load ds        12.4173 | init queue         154.8035
        L2  presample     115.5579 | build interal ds     2.6855
        L2  build cache     0.0000
    [Init Profiler Level 3]
        L3  load dataset: mmap     9.6830 | copy         2.7343
        L3  dist queue: alloc      0.0008 | pin        154.8027 | push     0.0000
        L3  presample: init        0.3960
        L3  presample: sample     46.4276 | copy         2.7808
        L3  presample: count      65.2234 | sort         0.2544
        L3  presample: reset       0.0012 | get rank     0.0242
        L3  internal: cuda ctx     2.3369 | cuda stream     0.3227
[Sample Worker 0/2] Started with PID 80413(Tesla V100-SXM2-32GB)
[Sample Worker 0] run sample for 4 epochs with 501 steps
[Sample Worker 0] Avg Sample Total Time 14.2634 | Sampler Total Time(Profiler) 14.2374
test_result:sample_time=11.8100
test_result:get_cache_miss_index_time=0.0000
test_result:enqueue_samples_time=2.4274
test_result:epoch_time:sample_total=14.2634
[CUDA] cuda0: usage: 16.98 GB
[SAM] cuda0 data alloc        : 0.00 Bytes
[SAM] cuda0 workspace         : 4.80 GB
[SAM] cuda0 workspace reserve : 2.37 GB
[SAM] cuda0 total             : 4.80 GB
    [Step(average) Profiler Level 1 E3 S1001]
        L1  sample           0.000000 | send           0.000000
        L1  recv             0.008474 | copy           0.147609 | convert time 0.000480 | train  0.055850
        L1  feature nbytes    2.04 GB | label nbytes   62.50 KB
        L1  id nbytes      0.00 Bytes | graph nbytes 0.00 Bytes
        L1  miss nbytes     428.36 MB | remote nbytes    1.08 GB
        L1  num nodes               0 | num samples           0
    [Step(average) Profiler Level 2 E3 S1001]
        L2  shuffle     0.000000 | core sample  0.000000 | id remap        0.000000
        L2  graph copy  0.000004 | id copy      0.000000 | cache feat copy 0.139131
        L2  last layer sample time 0.000000 | size 0.000000
    [Step(average) Profiler Level 3 E3 S1001]
        L3  khop sample coo  0.000000 | khop sort coo      0.000000 | khop count edge     0.000000 | khop compact edge 0.000000
        L3  walk sample coo  0.000000 | walk topk total    0.000000 | walk topk step1     0.000000 | walk topk step2   0.000000
        L3  walk topk step3  0.000000 | walk topk step4    0.000000 | walk topk step5     0.000000
        L3  walk topk step6  0.000000 | walk topk step7    0.000000
        L3  remap unique     0.000000 | remap populate     0.000000 | remap mapnode       0.000000 | remap mapedge     0.000000
        L3  cache get_index  0.002807 | cache copy_index   0.000000 | cache extract_miss  0.000000
        L3  cache copy_miss  0.000000 | cache combine_miss 0.136291 | cache combine cache 0.001949 | cache combine remote 0.018811
        L3  label extract  0.000021
    [Step(max) Profiler Level 1 E3 S1001]
        L1  sample           0.000000 | send           0.000000
        L1  recv             0.000000 | copy           0.000000 | convert time 0.000000 | train  0.000000
        L1  feature nbytes 0.00 Bytes | label nbytes 0.00 Bytes
        L1  id nbytes      0.00 Bytes | graph nbytes   40.89 MB
        L1  miss nbytes    0.00 Bytes | remote nbytes 0.00 Bytes
        L1  num nodes               0 | num samples           0
    [Step(max) Profiler Level 2 E3 S1001]
        L2  shuffle     0.000000 | core sample  0.000000 | id remap        0.000000
        L2  graph copy  0.000000 | id copy      0.000000 | cache feat copy 0.000000
        L2  last layer sample time 0.000000 | size 0.000000
    [Step(max) Profiler Level 3 E3 S1001]
        L3  khop sample coo  0.000000 | khop sort coo      0.000000 | khop count edge     0.000000 | khop compact edge 0.000000
        L3  walk sample coo  0.000000 | walk topk total    0.000000 | walk topk step1     0.000000 | walk topk step2   0.000000
        L3  walk topk step3  0.000000 | walk topk step4    0.000000 | walk topk step5     0.000000
        L3  walk topk step6  0.000000 | walk topk step7    0.000000
        L3  remap unique     0.000000 | remap populate     0.000000 | remap mapnode       0.000000 | remap mapedge     0.000000
        L3  cache get_index  0.000000 | cache copy_index   0.000000 | cache extract_miss  0.000000
        L3  cache copy_miss  0.000000 | cache combine_miss 0.000000 | cache combine cache 0.000000 | cache combine remote 0.000000
        L3  label extract  0.000000
    [Step(min) Profiler Level 1 E3 S1001]
        L1  sample           0.000000 | send           0.000000
        L1  recv             0.000000 | copy           0.000000 | convert time 0.000000 | train  0.000000
        L1  feature nbytes 0.00 Bytes | label nbytes 0.00 Bytes
        L1  id nbytes      0.00 Bytes | graph nbytes   40.41 MB
        L1  miss nbytes    0.00 Bytes | remote nbytes 0.00 Bytes
        L1  num nodes               0 | num samples           0
    [Step(min) Profiler Level 2 E3 S1001]
        L2  shuffle     0.000000 | core sample  0.000000 | id remap        0.000000
        L2  graph copy  0.000000 | id copy      0.000000 | cache feat copy 0.000000
        L2  last layer sample time 0.000000 | size 0.000000
    [Step(min) Profiler Level 3 E3 S1001]
        L3  khop sample coo  0.000000 | khop sort coo      0.000000 | khop count edge     0.000000 | khop compact edge 0.000000
        L3  walk sample coo  0.000000 | walk topk total    0.000000 | walk topk step1     0.000000 | walk topk step2   0.000000
        L3  walk topk step3  0.000000 | walk topk step4    0.000000 | walk topk step5     0.000000
        L3  walk topk step6  0.000000 | walk topk step7    0.000000
        L3  remap unique     0.000000 | remap populate     0.000000 | remap mapnode       0.000000 | remap mapedge     0.000000
        L3  cache get_index  0.000000 | cache copy_index   0.000000 | cache extract_miss  0.000000
        L3  cache copy_miss  0.000000 | cache combine_miss 0.000000 | cache combine cache 0.000000 | cache combine remote 0.000000
        L3  label extract  0.000000
    [Init Profiler Level 1]
        L1  init     9.6868 | sampler init     0.0000 | trainer init 522.5807
    [Init Profiler Level 2]
        L2  load ds         9.6830 | init queue         154.7297
        L2  presample       0.0000 | build interal ds     2.2059
        L2  build cache   365.6443
    [Init Profiler Level 3]
        L3  load dataset: mmap     9.6830 | copy         0.0000
        L3  dist queue: alloc      0.0008 | pin        154.7288 | push     0.0000
        L3  presample: init        0.0000
        L3  presample: sample      0.0000 | copy         0.0000
        L3  presample: count       0.0000 | sort         0.0000
        L3  presample: reset       0.0000 | get rank     0.0000
        L3  internal: cuda ctx     2.2059 | cuda stream     0.0000
|===========================================================================|
|                  PyTorch CUDA memory summary, device ID 0                 |
|---------------------------------------------------------------------------|
|            CUDA OOMs: 0            |        cudaMalloc retries: 0         |
|===========================================================================|
|        Metric         | Cur Usage  | Peak Usage | Tot Alloc  | Tot Freed  |
|---------------------------------------------------------------------------|
| Allocated memory      |   65135 KB |    1421 MB |    2912 GB |    2912 GB |
|       from large pool |   56884 KB |    1420 MB |    2900 GB |    2900 GB |
|       from small pool |    8251 KB |      10 MB |      11 GB |      11 GB |
|---------------------------------------------------------------------------|
| Active memory         |   65136 KB |    1421 MB |    2912 GB |    2912 GB |
|       from large pool |   56884 KB |    1420 MB |    2900 GB |    2900 GB |
|       from small pool |    8251 KB |      10 MB |      11 GB |      11 GB |
|---------------------------------------------------------------------------|
| GPU reserved memory   |    1688 MB |    1688 MB |    1688 MB |       0 B  |
|       from large pool |    1672 MB |    1672 MB |    1672 MB |       0 B  |
|       from small pool |      16 MB |      16 MB |      16 MB |       0 B  |
|---------------------------------------------------------------------------|
| Non-releasable memory |  264592 KB |    1221 MB |    3121 GB |    3121 GB |
|       from large pool |  262603 KB |    1217 MB |    3109 GB |    3108 GB |
|       from small pool |    1988 KB |       8 MB |      12 GB |      12 GB |
|---------------------------------------------------------------------------|
| Allocations           |      39    |      56    |   91555    |   91516    |
|       from large pool |       3    |      14    |   36740    |   36737    |
|       from small pool |      36    |      45    |   54815    |   54779    |
|---------------------------------------------------------------------------|
| Active allocs         |      40    |      56    |   91555    |   91515    |
|       from large pool |       3    |      14    |   36740    |   36737    |
|       from small pool |      37    |      45    |   54815    |   54778    |
|---------------------------------------------------------------------------|
| GPU reserved segments |      17    |      17    |      17    |       0    |
|       from large pool |       9    |       9    |       9    |       0    |
|       from small pool |       8    |       8    |       8    |       0    |
|---------------------------------------------------------------------------|
| Non-releasable allocs |      14    |      29    |   35664    |   35650    |
|       from large pool |       4    |      12    |   21306    |   21302    |
|       from small pool |      10    |      19    |   14358    |   14348    |
|---------------------------------------------------------------------------|
| Oversize allocations  |       0    |       0    |       0    |       0    |
|---------------------------------------------------------------------------|
| Oversize GPU segments |       0    |       0    |       0    |       0    |
|===========================================================================|

test_result:epoch_time:copy_time=13.9276
test_result:convert_time=0.0804
test_result:train_time=20.0502
test_result:epoch_time:train_total=20.1306
test_result:cache_percentage=0.1000
test_result:cache_hit_rate=1.0000
test_result:run_time=194.8287
